(set-info :source |printed by MathSAT|)
(declare-fun ldv_module_refcounter () (_ BitVec 32))

*:
(assert (let ((.def_27133 (= ldv_module_refcounter (_ bv1 32)))).def_27133))
(assert (let ((.def_27138 (bvslt (_ bv1 32) ldv_module_refcounter))).def_27138))

